clear
units metal
dimension 3
boundary p p p
atom_style atomic
atom_modify map array sort 0 0.0
read_data ./relaxed.4V_1500K_0He_1.dat
mass 1 183.841
pair_style snap
pair_coeff * * W_milady.snapcoeff W_milady.snapparam W


neighbor 2.0 bin
neigh_modify every 1 delay 0 check yes

timestep 0.001
fix T all langevin 300 300 1 123 gjf no
fix NVE all nve
run 50000
